outros_codigos/dieta.lp
Minimize
	obj: 3 x1 + 2.5 x2
Subject to
	vitaminas: 6 x1 + 4 x2 >= 32
	proteinas: 5 x1 + 6 x2 >= 36
General
	x1
	x2
End
